p cnf 816 2049
a 1 2 3 4 5 6 7 8 9 10 11 12 13 14 15 16 17 18 19 20 21 22 23 24 25 26 27 28 29 30 31 32 33 34 35 36 37 38 39 40 41 42 43 44 45 46 47 48 49 50 51 52 53 54 55 56 57 58 59 60 61 62 63 64 0
e 65 66 67 68 69 70 71 72 73 74 75 76 77 78 79 80 81 82 83 84 85 86 87 88 89 90 91 92 93 94 95 96 97 98 99 100 101 102 103 104 105 106 107 108 109 110 111 112 113 114 115 116 117 118 119 120 121 122 123 124 125 126 127 128 129 130 131 132 133 134 135 136 137 138 139 140 141 142 143 144 145 146 147 148 149 150 151 152 153 154 155 156 157 158 159 160 161 162 163 164 165 166 167 168 169 170 171 172 173 174 175 176 177 178 179 180 181 182 183 184 185 186 187 188 189 190 191 192 193 194 195 196 197 198 199 200 201 202 203 204 205 206 207 208 209 210 211 212 213 214 215 216 217 218 219 220 221 222 223 224 225 226 227 228 229 230 231 232 233 234 235 236 237 238 239 240 241 242 243 244 245 246 247 248 249 250 251 252 253 254 255 256 257 258 259 260 261 262 263 264 265 266 267 268 269 270 271 272 273 274 275 276 277 278 279 280 281 282 283 284 285 286 287 288 289 290 291 292 293 294 295 296 297 298 299 300 301 302 303 304 305 306 307 308 309 310 311 312 313 314 315 316 317 318 319 320 321 322 323 324 325 326 327 328 329 330 331 332 333 334 335 336 337 338 339 340 341 342 343 344 345 346 347 348 349 350 351 352 353 354 355 356 357 358 359 360 361 362 363 364 365 366 367 368 369 370 371 372 373 374 375 376 377 378 379 380 381 382 383 384 385 386 387 388 389 390 391 392 393 394 395 396 397 398 399 400 401 402 403 404 405 406 407 408 409 410 411 412 413 414 415 416 417 418 419 420 421 422 423 424 425 426 427 428 429 430 431 432 433 434 435 436 437 438 439 440 441 442 443 444 445 446 447 448 449 450 451 452 453 454 455 456 457 458 459 460 461 462 463 464 465 466 467 468 469 470 471 472 473 474 475 476 477 478 479 480 481 482 483 484 485 486 487 488 489 490 491 492 493 494 495 496 497 498 499 500 501 502 503 504 505 506 507 508 509 510 511 512 513 514 515 516 517 518 519 520 521 522 523 524 525 526 527 528 529 530 531 532 533 534 535 536 537 538 539 540 541 542 543 544 545 546 547 548 549 550 551 552 553 554 555 556 557 558 559 560 561 562 563 564 565 566 567 568 569 570 571 572 573 574 575 576 577 578 579 580 581 582 583 584 585 586 587 588 589 590 591 592 593 594 595 596 597 598 599 600 601 602 603 604 605 606 607 608 609 610 611 612 613 614 615 616 617 618 619 620 621 622 623 624 625 626 627 628 629 630 631 632 633 634 635 636 637 638 639 640 641 642 643 644 645 646 647 648 649 650 651 652 653 654 655 656 657 658 659 660 661 662 663 664 665 666 667 668 669 670 671 672 673 674 675 676 677 678 679 680 681 682 683 684 685 686 687 688 689 690 691 692 693 694 695 696 697 698 699 700 701 702 703 704 705 706 707 708 709 710 711 712 713 714 715 716 717 718 719 720 721 722 723 724 725 726 727 728 729 730 731 732 733 734 735 736 737 738 739 740 741 742 743 744 745 746 747 748 749 750 751 752 753 754 755 756 757 758 759 760 761 762 763 764 765 766 767 768 769 770 771 772 773 774 775 776 777 778 779 780 781 782 783 784 785 786 787 788 789 790 791 792 793 794 795 796 797 798 799 800 801 802 803 804 805 806 807 808 809 810 811 812 813 814 0
81 65 0
-81 -65 0
82 66 -81 0
-82 81 0
-82 -66 0
83 -82 0
-83 82 0
84 67 -83 0
-84 83 0
-84 -67 0
85 -84 0
-85 84 0
86 68 -85 0
-86 85 0
-86 -68 0
87 -86 0
-87 86 0
88 69 -87 0
-88 87 0
-88 -69 0
89 -88 0
-89 88 0
90 70 -89 0
-90 89 0
-90 -70 0
91 -90 0
-91 90 0
92 71 -91 0
-92 91 0
-92 -71 0
93 -92 0
-93 92 0
94 72 -93 0
-94 93 0
-94 -72 0
95 -94 0
-95 94 0
96 73 -95 0
-96 95 0
-96 -73 0
97 -96 0
-97 96 0
98 74 -97 0
-98 97 0
-98 -74 0
99 -98 0
-99 98 0
100 75 -99 0
-100 99 0
-100 -75 0
101 -100 0
-101 100 0
102 76 -101 0
-102 101 0
-102 -76 0
103 -102 0
-103 102 0
104 77 -103 0
-104 103 0
-104 -77 0
105 -104 0
-105 104 0
106 78 -105 0
-106 105 0
-106 -78 0
107 -106 0
-107 106 0
108 79 -107 0
-108 107 0
-108 -79 0
109 -108 0
-109 108 0
110 80 -109 0
-110 109 0
-110 -80 0
111 -110 0
-111 110 0
113 0
-113 111 -112 0
130 114 0
-130 -114 0
131 115 -130 0
-131 130 0
-131 -115 0
132 -131 0
-132 131 0
133 116 -132 0
-133 132 0
-133 -116 0
134 -133 0
-134 133 0
135 117 -134 0
-135 134 0
-135 -117 0
136 -135 0
-136 135 0
137 118 -136 0
-137 136 0
-137 -118 0
138 -137 0
-138 137 0
139 119 -138 0
-139 138 0
-139 -119 0
140 -139 0
-140 139 0
141 120 -140 0
-141 140 0
-141 -120 0
142 -141 0
-142 141 0
143 121 -142 0
-143 142 0
-143 -121 0
144 -143 0
-144 143 0
145 122 -144 0
-145 144 0
-145 -122 0
146 -145 0
-146 145 0
147 123 -146 0
-147 146 0
-147 -123 0
148 -147 0
-148 147 0
149 124 -148 0
-149 148 0
-149 -124 0
150 -149 0
-150 149 0
151 125 -150 0
-151 150 0
-151 -125 0
152 -151 0
-152 151 0
153 126 -152 0
-153 152 0
-153 -126 0
154 -153 0
-154 153 0
155 127 -154 0
-155 154 0
-155 -127 0
156 -155 0
-156 155 0
157 128 -156 0
-157 156 0
-157 -128 0
158 -157 0
-158 157 0
159 129 -158 0
-159 158 0
-159 -129 0
160 -159 0
-160 159 0
162 0
-162 160 -161 0
179 -114 163 0
179 114 -163 0
-179 114 163 0
-179 -114 -163 0
180 -115 164 0
180 115 -164 0
-180 115 164 0
-180 -115 -164 0
181 -116 165 0
181 116 -165 0
-181 116 165 0
-181 -116 -165 0
182 -117 166 0
182 117 -166 0
-182 117 166 0
-182 -117 -166 0
183 -118 167 0
183 118 -167 0
-183 118 167 0
-183 -118 -167 0
184 -119 168 0
184 119 -168 0
-184 119 168 0
-184 -119 -168 0
185 -120 169 0
185 120 -169 0
-185 120 169 0
-185 -120 -169 0
186 -121 170 0
186 121 -170 0
-186 121 170 0
-186 -121 -170 0
187 -122 171 0
187 122 -171 0
-187 122 171 0
-187 -122 -171 0
188 -123 172 0
188 123 -172 0
-188 123 172 0
-188 -123 -172 0
189 -124 173 0
189 124 -173 0
-189 124 173 0
-189 -124 -173 0
190 -125 174 0
190 125 -174 0
-190 125 174 0
-190 -125 -174 0
191 -126 175 0
191 126 -175 0
-191 126 175 0
-191 -126 -175 0
192 -127 176 0
192 127 -176 0
-192 127 176 0
-192 -127 -176 0
193 -128 177 0
193 128 -177 0
-193 128 177 0
-193 -128 -177 0
194 -129 178 0
194 129 -178 0
-194 129 178 0
-194 -129 -178 0
195 179 180 181 182 183 184 185 186 187 188 189 190 191 192 193 194 0
-195 -194 0
-195 -193 0
-195 -192 0
-195 -191 0
-195 -190 0
-195 -189 0
-195 -188 0
-195 -187 0
-195 -186 0
-195 -185 0
-195 -184 0
-195 -183 0
-195 -182 0
-195 -181 0
-195 -180 0
-195 -179 0
212 -65 196 0
212 65 -196 0
-212 65 196 0
-212 -65 -196 0
213 -66 197 0
213 66 -197 0
-213 66 197 0
-213 -66 -197 0
214 -67 198 0
214 67 -198 0
-214 67 198 0
-214 -67 -198 0
215 -68 199 0
215 68 -199 0
-215 68 199 0
-215 -68 -199 0
216 -69 200 0
216 69 -200 0
-216 69 200 0
-216 -69 -200 0
217 -70 201 0
217 70 -201 0
-217 70 201 0
-217 -70 -201 0
218 -71 202 0
218 71 -202 0
-218 71 202 0
-218 -71 -202 0
219 -72 203 0
219 72 -203 0
-219 72 203 0
-219 -72 -203 0
220 -73 204 0
220 73 -204 0
-220 73 204 0
-220 -73 -204 0
221 -74 205 0
221 74 -205 0
-221 74 205 0
-221 -74 -205 0
222 -75 206 0
222 75 -206 0
-222 75 206 0
-222 -75 -206 0
223 -76 207 0
223 76 -207 0
-223 76 207 0
-223 -76 -207 0
224 -77 208 0
224 77 -208 0
-224 77 208 0
-224 -77 -208 0
225 -78 209 0
225 78 -209 0
-225 78 209 0
-225 -78 -209 0
226 -79 210 0
226 79 -210 0
-226 79 210 0
-226 -79 -210 0
227 -80 211 0
227 80 -211 0
-227 80 211 0
-227 -80 -211 0
228 212 213 214 215 216 217 218 219 220 221 222 223 224 225 226 227 0
-228 -227 0
-228 -226 0
-228 -225 0
-228 -224 0
-228 -223 0
-228 -222 0
-228 -221 0
-228 -220 0
-228 -219 0
-228 -218 0
-228 -217 0
-228 -216 0
-228 -215 0
-228 -214 0
-228 -213 0
-228 -212 0
261 229 -245 0
261 -229 245 0
-261 229 245 0
-261 -229 -245 0
262 230 -246 0
262 -230 246 0
-262 230 246 0
-262 -230 -246 0
263 231 -247 0
263 -231 247 0
-263 231 247 0
-263 -231 -247 0
264 232 -248 0
264 -232 248 0
-264 232 248 0
-264 -232 -248 0
265 233 -249 0
265 -233 249 0
-265 233 249 0
-265 -233 -249 0
266 234 -250 0
266 -234 250 0
-266 234 250 0
-266 -234 -250 0
267 235 -251 0
267 -235 251 0
-267 235 251 0
-267 -235 -251 0
268 236 -252 0
268 -236 252 0
-268 236 252 0
-268 -236 -252 0
269 237 -253 0
269 -237 253 0
-269 237 253 0
-269 -237 -253 0
270 238 -254 0
270 -238 254 0
-270 238 254 0
-270 -238 -254 0
271 239 -255 0
271 -239 255 0
-271 239 255 0
-271 -239 -255 0
272 240 -256 0
272 -240 256 0
-272 240 256 0
-272 -240 -256 0
273 241 -257 0
273 -241 257 0
-273 241 257 0
-273 -241 -257 0
274 242 -258 0
274 -242 258 0
-274 242 258 0
-274 -242 -258 0
275 243 -259 0
275 -243 259 0
-275 243 259 0
-275 -243 -259 0
276 244 -260 0
276 -244 260 0
-276 244 260 0
-276 -244 -260 0
277 261 262 263 264 265 266 267 268 269 270 271 272 273 274 275 276 0
-277 -276 0
-277 -275 0
-277 -274 0
-277 -273 0
-277 -272 0
-277 -271 0
-277 -270 0
-277 -269 0
-277 -268 0
-277 -267 0
-277 -266 0
-277 -265 0
-277 -264 0
-277 -263 0
-277 -262 0
-277 -261 0
278 -65 0
-278 65 0
279 -66 -278 0
279 66 278 0
-279 -66 278 0
-279 66 -278 0
280 -66 -278 0
-280 278 0
-280 66 0
281 -278 0
281 -280 0
281 -66 0
-281 66 278 280 0
282 -67 -281 0
282 67 281 0
-282 -67 281 0
-282 67 -281 0
283 -67 -281 0
-283 281 0
-283 67 0
284 -281 0
284 -283 0
284 -67 0
-284 67 281 283 0
285 -68 -284 0
285 68 284 0
-285 -68 284 0
-285 68 -284 0
286 -68 -284 0
-286 284 0
-286 68 0
287 -284 0
287 -286 0
287 -68 0
-287 68 284 286 0
288 -69 -287 0
288 69 287 0
-288 -69 287 0
-288 69 -287 0
289 -69 -287 0
-289 287 0
-289 69 0
290 -287 0
290 -289 0
290 -69 0
-290 69 287 289 0
291 -70 -290 0
291 70 290 0
-291 -70 290 0
-291 70 -290 0
292 -70 -290 0
-292 290 0
-292 70 0
293 -290 0
293 -292 0
293 -70 0
-293 70 290 292 0
294 -71 -293 0
294 71 293 0
-294 -71 293 0
-294 71 -293 0
295 -71 -293 0
-295 293 0
-295 71 0
296 -293 0
296 -295 0
296 -71 0
-296 71 293 295 0
297 -72 -296 0
297 72 296 0
-297 -72 296 0
-297 72 -296 0
298 -72 -296 0
-298 296 0
-298 72 0
299 -296 0
299 -298 0
299 -72 0
-299 72 296 298 0
300 -73 -299 0
300 73 299 0
-300 -73 299 0
-300 73 -299 0
301 -73 -299 0
-301 299 0
-301 73 0
302 -299 0
302 -301 0
302 -73 0
-302 73 299 301 0
303 -74 -302 0
303 74 302 0
-303 -74 302 0
-303 74 -302 0
304 -74 -302 0
-304 302 0
-304 74 0
305 -302 0
305 -304 0
305 -74 0
-305 74 302 304 0
306 -75 -305 0
306 75 305 0
-306 -75 305 0
-306 75 -305 0
307 -75 -305 0
-307 305 0
-307 75 0
308 -305 0
308 -307 0
308 -75 0
-308 75 305 307 0
309 -76 -308 0
309 76 308 0
-309 -76 308 0
-309 76 -308 0
310 -76 -308 0
-310 308 0
-310 76 0
311 -308 0
311 -310 0
311 -76 0
-311 76 308 310 0
312 -77 -311 0
312 77 311 0
-312 -77 311 0
-312 77 -311 0
313 -77 -311 0
-313 311 0
-313 77 0
314 -311 0
314 -313 0
314 -77 0
-314 77 311 313 0
315 -78 -314 0
315 78 314 0
-315 -78 314 0
-315 78 -314 0
316 -78 -314 0
-316 314 0
-316 78 0
317 -314 0
317 -316 0
317 -78 0
-317 78 314 316 0
318 -79 -317 0
318 79 317 0
-318 -79 317 0
-318 79 -317 0
319 -79 -317 0
-319 317 0
-319 79 0
320 -317 0
320 -319 0
320 -79 0
-320 79 317 319 0
321 -80 -320 0
321 80 320 0
-321 -80 320 0
-321 80 -320 0
322 -80 -320 0
-322 320 0
-322 80 0
323 -320 0
323 -322 0
323 -80 0
-323 80 320 322 0
324 -65 0
-324 65 0
325 279 -324 0
-325 324 0
-325 -279 0
326 -325 0
-326 325 0
327 282 -326 0
-327 326 0
-327 -282 0
328 -327 0
-328 327 0
329 285 -328 0
-329 328 0
-329 -285 0
330 -329 0
-330 329 0
331 288 -330 0
-331 330 0
-331 -288 0
332 -331 0
-332 331 0
333 291 -332 0
-333 332 0
-333 -291 0
334 -333 0
-334 333 0
335 294 -334 0
-335 334 0
-335 -294 0
336 -335 0
-336 335 0
337 297 -336 0
-337 336 0
-337 -297 0
338 -337 0
-338 337 0
339 300 -338 0
-339 338 0
-339 -300 0
340 -339 0
-340 339 0
341 303 -340 0
-341 340 0
-341 -303 0
342 -341 0
-342 341 0
343 306 -342 0
-343 342 0
-343 -306 0
344 -343 0
-344 343 0
345 309 -344 0
-345 344 0
-345 -309 0
346 -345 0
-346 345 0
347 312 -346 0
-347 346 0
-347 -312 0
348 -347 0
-348 347 0
349 315 -348 0
-349 348 0
-349 -315 0
350 -349 0
-350 349 0
351 318 -350 0
-351 350 0
-351 -318 0
352 -351 0
-352 351 0
353 321 -352 0
-353 352 0
-353 -321 0
354 -353 0
-354 353 0
356 0
-356 354 -355 0
389 357 -373 0
389 -357 373 0
-389 357 373 0
-389 -357 -373 0
390 358 -374 0
390 -358 374 0
-390 358 374 0
-390 -358 -374 0
391 359 -375 0
391 -359 375 0
-391 359 375 0
-391 -359 -375 0
392 360 -376 0
392 -360 376 0
-392 360 376 0
-392 -360 -376 0
393 361 -377 0
393 -361 377 0
-393 361 377 0
-393 -361 -377 0
394 362 -378 0
394 -362 378 0
-394 362 378 0
-394 -362 -378 0
395 363 -379 0
395 -363 379 0
-395 363 379 0
-395 -363 -379 0
396 364 -380 0
396 -364 380 0
-396 364 380 0
-396 -364 -380 0
397 365 -381 0
397 -365 381 0
-397 365 381 0
-397 -365 -381 0
398 366 -382 0
398 -366 382 0
-398 366 382 0
-398 -366 -382 0
399 367 -383 0
399 -367 383 0
-399 367 383 0
-399 -367 -383 0
400 368 -384 0
400 -368 384 0
-400 368 384 0
-400 -368 -384 0
401 369 -385 0
401 -369 385 0
-401 369 385 0
-401 -369 -385 0
402 370 -386 0
402 -370 386 0
-402 370 386 0
-402 -370 -386 0
403 371 -387 0
403 -371 387 0
-403 371 387 0
-403 -371 -387 0
404 372 -388 0
404 -372 388 0
-404 372 388 0
-404 -372 -388 0
405 389 390 391 392 393 394 395 396 397 398 399 400 401 402 403 404 0
-405 -404 0
-405 -403 0
-405 -402 0
-405 -401 0
-405 -400 0
-405 -399 0
-405 -398 0
-405 -397 0
-405 -396 0
-405 -395 0
-405 -394 0
-405 -393 0
-405 -392 0
-405 -391 0
-405 -390 0
-405 -389 0
406 65 0
-406 -65 0
407 -279 -406 0
407 279 406 0
-407 -279 406 0
-407 279 -406 0
408 -279 -406 0
-408 406 0
-408 279 0
409 -406 0
409 -408 0
409 -279 0
-409 279 406 408 0
410 -282 -409 0
410 282 409 0
-410 -282 409 0
-410 282 -409 0
411 -282 -409 0
-411 409 0
-411 282 0
412 -409 0
412 -411 0
412 -282 0
-412 282 409 411 0
413 -285 -412 0
413 285 412 0
-413 -285 412 0
-413 285 -412 0
414 -285 -412 0
-414 412 0
-414 285 0
415 -412 0
415 -414 0
415 -285 0
-415 285 412 414 0
416 -288 -415 0
416 288 415 0
-416 -288 415 0
-416 288 -415 0
417 -288 -415 0
-417 415 0
-417 288 0
418 -415 0
418 -417 0
418 -288 0
-418 288 415 417 0
419 -291 -418 0
419 291 418 0
-419 -291 418 0
-419 291 -418 0
420 -291 -418 0
-420 418 0
-420 291 0
421 -418 0
421 -420 0
421 -291 0
-421 291 418 420 0
422 -294 -421 0
422 294 421 0
-422 -294 421 0
-422 294 -421 0
423 -294 -421 0
-423 421 0
-423 294 0
424 -421 0
424 -423 0
424 -294 0
-424 294 421 423 0
425 -297 -424 0
425 297 424 0
-425 -297 424 0
-425 297 -424 0
426 -297 -424 0
-426 424 0
-426 297 0
427 -424 0
427 -426 0
427 -297 0
-427 297 424 426 0
428 -300 -427 0
428 300 427 0
-428 -300 427 0
-428 300 -427 0
429 -300 -427 0
-429 427 0
-429 300 0
430 -427 0
430 -429 0
430 -300 0
-430 300 427 429 0
431 -303 -430 0
431 303 430 0
-431 -303 430 0
-431 303 -430 0
432 -303 -430 0
-432 430 0
-432 303 0
433 -430 0
433 -432 0
433 -303 0
-433 303 430 432 0
434 -306 -433 0
434 306 433 0
-434 -306 433 0
-434 306 -433 0
435 -306 -433 0
-435 433 0
-435 306 0
436 -433 0
436 -435 0
436 -306 0
-436 306 433 435 0
437 -309 -436 0
437 309 436 0
-437 -309 436 0
-437 309 -436 0
438 -309 -436 0
-438 436 0
-438 309 0
439 -436 0
439 -438 0
439 -309 0
-439 309 436 438 0
440 -312 -439 0
440 312 439 0
-440 -312 439 0
-440 312 -439 0
441 -312 -439 0
-441 439 0
-441 312 0
442 -439 0
442 -441 0
442 -312 0
-442 312 439 441 0
443 -315 -442 0
443 315 442 0
-443 -315 442 0
-443 315 -442 0
444 -315 -442 0
-444 442 0
-444 315 0
445 -442 0
445 -444 0
445 -315 0
-445 315 442 444 0
446 -318 -445 0
446 318 445 0
-446 -318 445 0
-446 318 -445 0
447 -318 -445 0
-447 445 0
-447 318 0
448 -445 0
448 -447 0
448 -318 0
-448 318 445 447 0
449 -321 -448 0
449 321 448 0
-449 -321 448 0
-449 321 -448 0
450 -321 -448 0
-450 448 0
-450 321 0
451 -448 0
451 -450 0
451 -321 0
-451 321 448 450 0
452 65 0
-452 -65 0
453 407 -452 0
-453 452 0
-453 -407 0
454 -453 0
-454 453 0
455 410 -454 0
-455 454 0
-455 -410 0
456 -455 0
-456 455 0
457 413 -456 0
-457 456 0
-457 -413 0
458 -457 0
-458 457 0
459 416 -458 0
-459 458 0
-459 -416 0
460 -459 0
-460 459 0
461 419 -460 0
-461 460 0
-461 -419 0
462 -461 0
-462 461 0
463 422 -462 0
-463 462 0
-463 -422 0
464 -463 0
-464 463 0
465 425 -464 0
-465 464 0
-465 -425 0
466 -465 0
-466 465 0
467 428 -466 0
-467 466 0
-467 -428 0
468 -467 0
-468 467 0
469 431 -468 0
-469 468 0
-469 -431 0
470 -469 0
-470 469 0
471 434 -470 0
-471 470 0
-471 -434 0
472 -471 0
-472 471 0
473 437 -472 0
-473 472 0
-473 -437 0
474 -473 0
-474 473 0
475 440 -474 0
-475 474 0
-475 -440 0
476 -475 0
-476 475 0
477 443 -476 0
-477 476 0
-477 -443 0
478 -477 0
-478 477 0
479 446 -478 0
-479 478 0
-479 -446 0
480 -479 0
-480 479 0
481 449 -480 0
-481 480 0
-481 -449 0
482 -481 0
-482 481 0
484 0
-484 482 -483 0
485 1 -196 0
485 -1 196 0
-485 1 196 0
-485 -1 -196 0
486 2 -197 0
486 -2 197 0
-486 2 197 0
-486 -2 -197 0
487 3 -198 0
487 -3 198 0
-487 3 198 0
-487 -3 -198 0
488 4 -199 0
488 -4 199 0
-488 4 199 0
-488 -4 -199 0
489 5 -200 0
489 -5 200 0
-489 5 200 0
-489 -5 -200 0
490 6 -201 0
490 -6 201 0
-490 6 201 0
-490 -6 -201 0
491 7 -202 0
491 -7 202 0
-491 7 202 0
-491 -7 -202 0
492 8 -203 0
492 -8 203 0
-492 8 203 0
-492 -8 -203 0
493 9 -204 0
493 -9 204 0
-493 9 204 0
-493 -9 -204 0
494 10 -205 0
494 -10 205 0
-494 10 205 0
-494 -10 -205 0
495 11 -206 0
495 -11 206 0
-495 11 206 0
-495 -11 -206 0
496 12 -207 0
496 -12 207 0
-496 12 207 0
-496 -12 -207 0
497 13 -208 0
497 -13 208 0
-497 13 208 0
-497 -13 -208 0
498 14 -209 0
498 -14 209 0
-498 14 209 0
-498 -14 -209 0
499 15 -210 0
499 -15 210 0
-499 15 210 0
-499 -15 -210 0
500 16 -211 0
500 -16 211 0
-500 16 211 0
-500 -16 -211 0
501 485 486 487 488 489 490 491 492 493 494 495 496 497 498 499 500 0
-501 -500 0
-501 -499 0
-501 -498 0
-501 -497 0
-501 -496 0
-501 -495 0
-501 -494 0
-501 -493 0
-501 -492 0
-501 -491 0
-501 -490 0
-501 -489 0
-501 -488 0
-501 -487 0
-501 -486 0
-501 -485 0
502 33 -65 0
502 -33 65 0
-502 33 65 0
-502 -33 -65 0
503 34 -407 0
503 -34 407 0
-503 34 407 0
-503 -34 -407 0
504 35 -410 0
504 -35 410 0
-504 35 410 0
-504 -35 -410 0
505 36 -413 0
505 -36 413 0
-505 36 413 0
-505 -36 -413 0
506 37 -416 0
506 -37 416 0
-506 37 416 0
-506 -37 -416 0
507 38 -419 0
507 -38 419 0
-507 38 419 0
-507 -38 -419 0
508 39 -422 0
508 -39 422 0
-508 39 422 0
-508 -39 -422 0
509 40 -425 0
509 -40 425 0
-509 40 425 0
-509 -40 -425 0
510 41 -428 0
510 -41 428 0
-510 41 428 0
-510 -41 -428 0
511 42 -431 0
511 -42 431 0
-511 42 431 0
-511 -42 -431 0
512 43 -434 0
512 -43 434 0
-512 43 434 0
-512 -43 -434 0
513 44 -437 0
513 -44 437 0
-513 44 437 0
-513 -44 -437 0
514 45 -440 0
514 -45 440 0
-514 45 440 0
-514 -45 -440 0
515 46 -443 0
515 -46 443 0
-515 46 443 0
-515 -46 -443 0
516 47 -446 0
516 -47 446 0
-516 47 446 0
-516 -47 -446 0
517 48 -449 0
517 -48 449 0
-517 48 449 0
-517 -48 -449 0
518 502 503 504 505 506 507 508 509 510 511 512 513 514 515 516 517 0
-518 -517 0
-518 -516 0
-518 -515 0
-518 -514 0
-518 -513 0
-518 -512 0
-518 -511 0
-518 -510 0
-518 -509 0
-518 -508 0
-518 -507 0
-518 -506 0
-518 -505 0
-518 -504 0
-518 -503 0
-518 -502 0
519 17 -163 0
519 -17 163 0
-519 17 163 0
-519 -17 -163 0
520 18 -164 0
520 -18 164 0
-520 18 164 0
-520 -18 -164 0
521 19 -165 0
521 -19 165 0
-521 19 165 0
-521 -19 -165 0
522 20 -166 0
522 -20 166 0
-522 20 166 0
-522 -20 -166 0
523 21 -167 0
523 -21 167 0
-523 21 167 0
-523 -21 -167 0
524 22 -168 0
524 -22 168 0
-524 22 168 0
-524 -22 -168 0
525 23 -169 0
525 -23 169 0
-525 23 169 0
-525 -23 -169 0
526 24 -170 0
526 -24 170 0
-526 24 170 0
-526 -24 -170 0
527 25 -171 0
527 -25 171 0
-527 25 171 0
-527 -25 -171 0
528 26 -172 0
528 -26 172 0
-528 26 172 0
-528 -26 -172 0
529 27 -173 0
529 -27 173 0
-529 27 173 0
-529 -27 -173 0
530 28 -174 0
530 -28 174 0
-530 28 174 0
-530 -28 -174 0
531 29 -175 0
531 -29 175 0
-531 29 175 0
-531 -29 -175 0
532 30 -176 0
532 -30 176 0
-532 30 176 0
-532 -30 -176 0
533 31 -177 0
533 -31 177 0
-533 31 177 0
-533 -31 -177 0
534 32 -178 0
534 -32 178 0
-534 32 178 0
-534 -32 -178 0
535 519 520 521 522 523 524 525 526 527 528 529 530 531 532 533 534 0
-535 -534 0
-535 -533 0
-535 -532 0
-535 -531 0
-535 -530 0
-535 -529 0
-535 -528 0
-535 -527 0
-535 -526 0
-535 -525 0
-535 -524 0
-535 -523 0
-535 -522 0
-535 -521 0
-535 -520 0
-535 -519 0
536 49 -114 0
536 -49 114 0
-536 49 114 0
-536 -49 -114 0
537 50 -115 0
537 -50 115 0
-537 50 115 0
-537 -50 -115 0
538 51 -116 0
538 -51 116 0
-538 51 116 0
-538 -51 -116 0
539 52 -117 0
539 -52 117 0
-539 52 117 0
-539 -52 -117 0
540 53 -118 0
540 -53 118 0
-540 53 118 0
-540 -53 -118 0
541 54 -119 0
541 -54 119 0
-541 54 119 0
-541 -54 -119 0
542 55 -120 0
542 -55 120 0
-542 55 120 0
-542 -55 -120 0
543 56 -121 0
543 -56 121 0
-543 56 121 0
-543 -56 -121 0
544 57 -122 0
544 -57 122 0
-544 57 122 0
-544 -57 -122 0
545 58 -123 0
545 -58 123 0
-545 58 123 0
-545 -58 -123 0
546 59 -124 0
546 -59 124 0
-546 59 124 0
-546 -59 -124 0
547 60 -125 0
547 -60 125 0
-547 60 125 0
-547 -60 -125 0
548 61 -126 0
548 -61 126 0
-548 61 126 0
-548 -61 -126 0
549 62 -127 0
549 -62 127 0
-549 62 127 0
-549 -62 -127 0
550 63 -128 0
550 -63 128 0
-550 63 128 0
-550 -63 -128 0
551 64 -129 0
551 -64 129 0
-551 64 129 0
-551 -64 -129 0
552 536 537 538 539 540 541 542 543 544 545 546 547 548 549 550 551 0
-552 -551 0
-552 -550 0
-552 -549 0
-552 -548 0
-552 -547 0
-552 -546 0
-552 -545 0
-552 -544 0
-552 -543 0
-552 -542 0
-552 -541 0
-552 -540 0
-552 -539 0
-552 -538 0
-552 -537 0
-552 -536 0
553 111 160 -195 -228 -277 354 -405 482 -501 -518 -535 -552 0
-553 552 0
-553 535 0
-553 518 0
-553 501 0
-553 -482 0
-553 405 0
-553 -354 0
-553 277 0
-553 228 0
-553 195 0
-553 -160 0
-553 -111 0
586 554 -570 0
-586 -554 0
-586 570 0
587 554 0
587 -570 0
587 -586 0
-587 -554 570 586 0
588 555 -571 0
-588 -555 0
-588 571 0
589 -571 -587 0
-589 587 0
-589 571 0
590 555 -587 0
-590 587 0
-590 -555 0
591 -590 0
591 -589 0
591 -588 0
-591 588 589 590 0
592 556 -572 0
-592 -556 0
-592 572 0
593 -572 -591 0
-593 591 0
-593 572 0
594 556 -591 0
-594 591 0
-594 -556 0
595 -594 0
595 -593 0
595 -592 0
-595 592 593 594 0
596 557 -573 0
-596 -557 0
-596 573 0
597 -573 -595 0
-597 595 0
-597 573 0
598 557 -595 0
-598 595 0
-598 -557 0
599 -598 0
599 -597 0
599 -596 0
-599 596 597 598 0
600 558 -574 0
-600 -558 0
-600 574 0
601 -574 -599 0
-601 599 0
-601 574 0
602 558 -599 0
-602 599 0
-602 -558 0
603 -602 0
603 -601 0
603 -600 0
-603 600 601 602 0
604 559 -575 0
-604 -559 0
-604 575 0
605 -575 -603 0
-605 603 0
-605 575 0
606 559 -603 0
-606 603 0
-606 -559 0
607 -606 0
607 -605 0
607 -604 0
-607 604 605 606 0
608 560 -576 0
-608 -560 0
-608 576 0
609 -576 -607 0
-609 607 0
-609 576 0
610 560 -607 0
-610 607 0
-610 -560 0
611 -610 0
611 -609 0
611 -608 0
-611 608 609 610 0
612 561 -577 0
-612 -561 0
-612 577 0
613 -577 -611 0
-613 611 0
-613 577 0
614 561 -611 0
-614 611 0
-614 -561 0
615 -614 0
615 -613 0
615 -612 0
-615 612 613 614 0
616 562 -578 0
-616 -562 0
-616 578 0
617 -578 -615 0
-617 615 0
-617 578 0
618 562 -615 0
-618 615 0
-618 -562 0
619 -618 0
619 -617 0
619 -616 0
-619 616 617 618 0
620 563 -579 0
-620 -563 0
-620 579 0
621 -579 -619 0
-621 619 0
-621 579 0
622 563 -619 0
-622 619 0
-622 -563 0
623 -622 0
623 -621 0
623 -620 0
-623 620 621 622 0
624 564 -580 0
-624 -564 0
-624 580 0
625 -580 -623 0
-625 623 0
-625 580 0
626 564 -623 0
-626 623 0
-626 -564 0
627 -626 0
627 -625 0
627 -624 0
-627 624 625 626 0
628 565 -581 0
-628 -565 0
-628 581 0
629 -581 -627 0
-629 627 0
-629 581 0
630 565 -627 0
-630 627 0
-630 -565 0
631 -630 0
631 -629 0
631 -628 0
-631 628 629 630 0
632 566 -582 0
-632 -566 0
-632 582 0
633 -582 -631 0
-633 631 0
-633 582 0
634 566 -631 0
-634 631 0
-634 -566 0
635 -634 0
635 -633 0
635 -632 0
-635 632 633 634 0
636 567 -583 0
-636 -567 0
-636 583 0
637 -583 -635 0
-637 635 0
-637 583 0
638 567 -635 0
-638 635 0
-638 -567 0
639 -638 0
639 -637 0
639 -636 0
-639 636 637 638 0
640 568 -584 0
-640 -568 0
-640 584 0
641 -584 -639 0
-641 639 0
-641 584 0
642 568 -639 0
-642 639 0
-642 -568 0
643 -642 0
643 -641 0
643 -640 0
-643 640 641 642 0
644 569 -585 0
-644 -569 0
-644 585 0
645 -585 -643 0
-645 643 0
-645 585 0
646 569 -643 0
-646 643 0
-646 -569 0
647 -646 0
647 -645 0
647 -644 0
-647 644 645 646 0
649 0
-649 647 -648 0
682 650 -666 0
-682 -650 0
-682 666 0
683 650 0
683 -666 0
683 -682 0
-683 -650 666 682 0
684 651 -667 0
-684 -651 0
-684 667 0
685 -667 -683 0
-685 683 0
-685 667 0
686 651 -683 0
-686 683 0
-686 -651 0
687 -686 0
687 -685 0
687 -684 0
-687 684 685 686 0
688 652 -668 0
-688 -652 0
-688 668 0
689 -668 -687 0
-689 687 0
-689 668 0
690 652 -687 0
-690 687 0
-690 -652 0
691 -690 0
691 -689 0
691 -688 0
-691 688 689 690 0
692 653 -669 0
-692 -653 0
-692 669 0
693 -669 -691 0
-693 691 0
-693 669 0
694 653 -691 0
-694 691 0
-694 -653 0
695 -694 0
695 -693 0
695 -692 0
-695 692 693 694 0
696 654 -670 0
-696 -654 0
-696 670 0
697 -670 -695 0
-697 695 0
-697 670 0
698 654 -695 0
-698 695 0
-698 -654 0
699 -698 0
699 -697 0
699 -696 0
-699 696 697 698 0
700 655 -671 0
-700 -655 0
-700 671 0
701 -671 -699 0
-701 699 0
-701 671 0
702 655 -699 0
-702 699 0
-702 -655 0
703 -702 0
703 -701 0
703 -700 0
-703 700 701 702 0
704 656 -672 0
-704 -656 0
-704 672 0
705 -672 -703 0
-705 703 0
-705 672 0
706 656 -703 0
-706 703 0
-706 -656 0
707 -706 0
707 -705 0
707 -704 0
-707 704 705 706 0
708 657 -673 0
-708 -657 0
-708 673 0
709 -673 -707 0
-709 707 0
-709 673 0
710 657 -707 0
-710 707 0
-710 -657 0
711 -710 0
711 -709 0
711 -708 0
-711 708 709 710 0
712 658 -674 0
-712 -658 0
-712 674 0
713 -674 -711 0
-713 711 0
-713 674 0
714 658 -711 0
-714 711 0
-714 -658 0
715 -714 0
715 -713 0
715 -712 0
-715 712 713 714 0
716 659 -675 0
-716 -659 0
-716 675 0
717 -675 -715 0
-717 715 0
-717 675 0
718 659 -715 0
-718 715 0
-718 -659 0
719 -718 0
719 -717 0
719 -716 0
-719 716 717 718 0
720 660 -676 0
-720 -660 0
-720 676 0
721 -676 -719 0
-721 719 0
-721 676 0
722 660 -719 0
-722 719 0
-722 -660 0
723 -722 0
723 -721 0
723 -720 0
-723 720 721 722 0
724 661 -677 0
-724 -661 0
-724 677 0
725 -677 -723 0
-725 723 0
-725 677 0
726 661 -723 0
-726 723 0
-726 -661 0
727 -726 0
727 -725 0
727 -724 0
-727 724 725 726 0
728 662 -678 0
-728 -662 0
-728 678 0
729 -678 -727 0
-729 727 0
-729 678 0
730 662 -727 0
-730 727 0
-730 -662 0
731 -730 0
731 -729 0
731 -728 0
-731 728 729 730 0
732 663 -679 0
-732 -663 0
-732 679 0
733 -679 -731 0
-733 731 0
-733 679 0
734 663 -731 0
-734 731 0
-734 -663 0
735 -734 0
735 -733 0
735 -732 0
-735 732 733 734 0
736 664 -680 0
-736 -664 0
-736 680 0
737 -680 -735 0
-737 735 0
-737 680 0
738 664 -735 0
-738 735 0
-738 -664 0
739 -738 0
739 -737 0
739 -736 0
-739 736 737 738 0
740 665 -681 0
-740 -665 0
-740 681 0
741 -681 -739 0
-741 739 0
-741 681 0
742 665 -739 0
-742 739 0
-742 -665 0
743 -742 0
743 -741 0
743 -740 0
-743 740 741 742 0
745 0
-745 743 -744 0
746 -553 0
746 647 743 0
-746 -743 0
-746 -647 0
747 1 -33 0
747 -1 33 0
-747 1 33 0
-747 -1 -33 0
748 2 -34 0
748 -2 34 0
-748 2 34 0
-748 -2 -34 0
749 3 -35 0
749 -3 35 0
-749 3 35 0
-749 -3 -35 0
750 4 -36 0
750 -4 36 0
-750 4 36 0
-750 -4 -36 0
751 5 -37 0
751 -5 37 0
-751 5 37 0
-751 -5 -37 0
752 6 -38 0
752 -6 38 0
-752 6 38 0
-752 -6 -38 0
753 7 -39 0
753 -7 39 0
-753 7 39 0
-753 -7 -39 0
754 8 -40 0
754 -8 40 0
-754 8 40 0
-754 -8 -40 0
755 9 -41 0
755 -9 41 0
-755 9 41 0
-755 -9 -41 0
756 10 -42 0
756 -10 42 0
-756 10 42 0
-756 -10 -42 0
757 11 -43 0
757 -11 43 0
-757 11 43 0
-757 -11 -43 0
758 12 -44 0
758 -12 44 0
-758 12 44 0
-758 -12 -44 0
759 13 -45 0
759 -13 45 0
-759 13 45 0
-759 -13 -45 0
760 14 -46 0
760 -14 46 0
-760 14 46 0
-760 -14 -46 0
761 15 -47 0
761 -15 47 0
-761 15 47 0
-761 -15 -47 0
762 16 -48 0
762 -16 48 0
-762 16 48 0
-762 -16 -48 0
763 747 748 749 750 751 752 753 754 755 756 757 758 759 760 761 762 0
-763 -762 0
-763 -761 0
-763 -760 0
-763 -759 0
-763 -758 0
-763 -757 0
-763 -756 0
-763 -755 0
-763 -754 0
-763 -753 0
-763 -752 0
-763 -751 0
-763 -750 0
-763 -749 0
-763 -748 0
-763 -747 0
764 554 -570 0
764 -554 570 0
-764 554 570 0
-764 -554 -570 0
765 555 -571 0
765 -555 571 0
-765 555 571 0
-765 -555 -571 0
766 556 -572 0
766 -556 572 0
-766 556 572 0
-766 -556 -572 0
767 557 -573 0
767 -557 573 0
-767 557 573 0
-767 -557 -573 0
768 558 -574 0
768 -558 574 0
-768 558 574 0
-768 -558 -574 0
769 559 -575 0
769 -559 575 0
-769 559 575 0
-769 -559 -575 0
770 560 -576 0
770 -560 576 0
-770 560 576 0
-770 -560 -576 0
771 561 -577 0
771 -561 577 0
-771 561 577 0
-771 -561 -577 0
772 562 -578 0
772 -562 578 0
-772 562 578 0
-772 -562 -578 0
773 563 -579 0
773 -563 579 0
-773 563 579 0
-773 -563 -579 0
774 564 -580 0
774 -564 580 0
-774 564 580 0
-774 -564 -580 0
775 565 -581 0
775 -565 581 0
-775 565 581 0
-775 -565 -581 0
776 566 -582 0
776 -566 582 0
-776 566 582 0
-776 -566 -582 0
777 567 -583 0
777 -567 583 0
-777 567 583 0
-777 -567 -583 0
778 568 -584 0
778 -568 584 0
-778 568 584 0
-778 -568 -584 0
779 569 -585 0
779 -569 585 0
-779 569 585 0
-779 -569 -585 0
780 -763 0
780 764 765 766 767 768 769 770 771 772 773 774 775 776 777 778 779 0
-780 -779 0
-780 -778 0
-780 -777 0
-780 -776 0
-780 -775 0
-780 -774 0
-780 -773 0
-780 -772 0
-780 -771 0
-780 -770 0
-780 -769 0
-780 -768 0
-780 -767 0
-780 -766 0
-780 -765 0
-780 -764 0
781 17 -49 0
781 -17 49 0
-781 17 49 0
-781 -17 -49 0
782 18 -50 0
782 -18 50 0
-782 18 50 0
-782 -18 -50 0
783 19 -51 0
783 -19 51 0
-783 19 51 0
-783 -19 -51 0
784 20 -52 0
784 -20 52 0
-784 20 52 0
-784 -20 -52 0
785 21 -53 0
785 -21 53 0
-785 21 53 0
-785 -21 -53 0
786 22 -54 0
786 -22 54 0
-786 22 54 0
-786 -22 -54 0
787 23 -55 0
787 -23 55 0
-787 23 55 0
-787 -23 -55 0
788 24 -56 0
788 -24 56 0
-788 24 56 0
-788 -24 -56 0
789 25 -57 0
789 -25 57 0
-789 25 57 0
-789 -25 -57 0
790 26 -58 0
790 -26 58 0
-790 26 58 0
-790 -26 -58 0
791 27 -59 0
791 -27 59 0
-791 27 59 0
-791 -27 -59 0
792 28 -60 0
792 -28 60 0
-792 28 60 0
-792 -28 -60 0
793 29 -61 0
793 -29 61 0
-793 29 61 0
-793 -29 -61 0
794 30 -62 0
794 -30 62 0
-794 30 62 0
-794 -30 -62 0
795 31 -63 0
795 -31 63 0
-795 31 63 0
-795 -31 -63 0
796 32 -64 0
796 -32 64 0
-796 32 64 0
-796 -32 -64 0
797 781 782 783 784 785 786 787 788 789 790 791 792 793 794 795 796 0
-797 -796 0
-797 -795 0
-797 -794 0
-797 -793 0
-797 -792 0
-797 -791 0
-797 -790 0
-797 -789 0
-797 -788 0
-797 -787 0
-797 -786 0
-797 -785 0
-797 -784 0
-797 -783 0
-797 -782 0
-797 -781 0
798 650 -666 0
798 -650 666 0
-798 650 666 0
-798 -650 -666 0
799 651 -667 0
799 -651 667 0
-799 651 667 0
-799 -651 -667 0
800 652 -668 0
800 -652 668 0
-800 652 668 0
-800 -652 -668 0
801 653 -669 0
801 -653 669 0
-801 653 669 0
-801 -653 -669 0
802 654 -670 0
802 -654 670 0
-802 654 670 0
-802 -654 -670 0
803 655 -671 0
803 -655 671 0
-803 655 671 0
-803 -655 -671 0
804 656 -672 0
804 -656 672 0
-804 656 672 0
-804 -656 -672 0
805 657 -673 0
805 -657 673 0
-805 657 673 0
-805 -657 -673 0
806 658 -674 0
806 -658 674 0
-806 658 674 0
-806 -658 -674 0
807 659 -675 0
807 -659 675 0
-807 659 675 0
-807 -659 -675 0
808 660 -676 0
808 -660 676 0
-808 660 676 0
-808 -660 -676 0
809 661 -677 0
809 -661 677 0
-809 661 677 0
-809 -661 -677 0
810 662 -678 0
810 -662 678 0
-810 662 678 0
-810 -662 -678 0
811 663 -679 0
811 -663 679 0
-811 663 679 0
-811 -663 -679 0
812 664 -680 0
812 -664 680 0
-812 664 680 0
-812 -664 -680 0
813 665 -681 0
813 -665 681 0
-813 665 681 0
-813 -665 -681 0
814 -797 0
814 798 799 800 801 802 803 804 805 806 807 808 809 810 811 812 813 0
-814 -813 0
-814 -812 0
-814 -811 0
-814 -810 0
-814 -809 0
-814 -808 0
-814 -807 0
-814 -806 0
-814 -805 0
-814 -804 0
-814 -803 0
-814 -802 0
-814 -801 0
-814 -800 0
-814 -799 0
-814 -798 0
